solution status: optimal solution found
objective value:                                   39
one.thingy.devices[1].thingy.v2_y                   -8 	(obj:0)
one.thingy.devices[1].thingy.v2_z                   -4 	(obj:0)
one.thingy.devices[3].thingy.v2_y                   -6 	(obj:0)
one.thingy.devices[3].thingy.v2_z                   -9 	(obj:0)
one.thingy.devices[1].thingy.v3_y                   -7 	(obj:0)
one.thingy.devices[1].thingy.v3_z                   -4 	(obj:0)
one.thingy.devices[2].thingy.v1_y                   -5 	(obj:0)
one.thingy.devices[2].thingy.v1_z                   -5 	(obj:0)
one.thingy.devices[2].thingy.v3_y                   -6 	(obj:0)
one.thingy.devices[2].thingy.v3_z                   -6 	(obj:0)
one.thingy.devices[0].thingy.v1_y                  -11 	(obj:0)
one.thingy.devices[0].thingy.v1_z                   -4 	(obj:0)
one.thingy.devices[1].thingy.v1_y                   -7 	(obj:0)
one.thingy.devices[1].thingy.v1_z                   -3 	(obj:0)
one.thingy.devices[0].thingy.v3_y                  -11 	(obj:0)
one.thingy.devices[0].thingy.v3_z                   -3 	(obj:0)
one.thingy.devices[0].thingy.v2_y                  -11 	(obj:0)
one.thingy.devices[0].thingy.v2_z                   -5 	(obj:0)
one.thingy.devices[2].thingy.v2_y                   -6 	(obj:0)
one.thingy.devices[2].thingy.v2_z                   -5 	(obj:0)
one.thingy.devices[3].thingy.v1_y                   -5 	(obj:0)
one.thingy.devices[3].thingy.v1_z                   -9 	(obj:0)
one.thingy.devices[3].thingy.v3_y                   -6 	(obj:0)
one.thingy.devices[3].thingy.v3_z                   -8 	(obj:0)
x25                                                 1 	(obj:1)
x29                                                 1 	(obj:1)
x30                                                 2 	(obj:1)
x34                                                 1 	(obj:1)
x35                                                 2 	(obj:1)
x37                                                 2 	(obj:1)
x42                                                 2 	(obj:1)
x46                                                 2 	(obj:1)
x47                                                 1 	(obj:1)
x53                                                 2 	(obj:1)
x54                                                 1 	(obj:1)
x55                                                 1 	(obj:1)
x60                                                 1 	(obj:1)
x61                                                 2 	(obj:1)
x64                                                 1 	(obj:1)
x66                                                 1 	(obj:1)
x67                                                 2 	(obj:1)
x68                                                 2 	(obj:1)
x73                                                 1 	(obj:1)
x78                                                 2 	(obj:1)
x82                                                 2 	(obj:1)
x83                                                 2 	(obj:1)
x89                                                 1 	(obj:1)
x94                                                 2 	(obj:1)
x95                                                 2 	(obj:1)
